
--- Job subtour_elim_auto.gms Start 02/21/17 22:36:14 24.8.2 r59988 WEX-WEI x86 64bit/MS Windows
GAMS 24.8.2   Copyright (C) 1987-2017 GAMS Development. All rights reserved
Licensee: GAMS Development Corporation, Washington, DC   G871201/0000CA-ANY
          Free Demo,  202-342-0180,  sales@gams.com,  www.gams.com   DC0000
--- Starting compilation
--- subtour_elim_auto.gms(1) 2 Mb
--- .tsp_model.gms(8) 3 Mb
--- ..distances.csv(6) 3 Mb
--- .tsp_model.gms(30) 3 Mb
--- subtour_elim_auto.gms(46) 3 Mb
--- Starting execution: elapsed 0:00:00.005
--- subtour_elim_auto.gms(19) 4 Mb
--- Generating MIP model tsp
--- subtour_elim_auto.gms(47) 4 Mb
---   12 rows  26 columns  76 non-zeroes
---   25 discrete-columns
--- Executing CPLEX: elapsed 0:00:00.011

IBM ILOG CPLEX   24.8.2 r59988 Released Jan  3, 2017 WEI x86 64bit/MS Windows 
Cplex 12.7.0.0

Reading data...
Starting Cplex...
Space for names approximately 0.00 Mb
Use option 'names no' to turn use of names off
Tried aggregator 1 time.
MIP Presolve eliminated 2 rows and 6 columns.
Reduced MIP has 10 rows, 20 columns, and 40 nonzeros.
Reduced MIP has 20 binaries, 0 generals, 0 SOSs, and 0 indicators.
Presolve time = 0.05 sec. (0.02 ticks)
Found incumbent of value 3093962.000000 after 0.06 sec. (0.07 ticks)
Probing time = 0.00 sec. (0.01 ticks)
Tried aggregator 1 time.
Reduced MIP has 10 rows, 20 columns, and 40 nonzeros.
Reduced MIP has 20 binaries, 0 generals, 0 SOSs, and 0 indicators.
Presolve time = 0.00 sec. (0.02 ticks)
Probing time = 0.00 sec. (0.01 ticks)
Clique table members: 10.
MIP emphasis: balance optimality and feasibility.
MIP search method: dynamic search.
Parallel mode: none, using 1 thread.
Tried aggregator 1 time.
No LP presolve or aggregator reductions.
Presolve time = 0.00 sec. (0.01 ticks)

Iteration      Dual Objective            In Variable           Out Variable
     1          148247.000000               x(i1.i2)       rowsum(i1) artif
     2          296494.000000               x(i2.i1)       rowsum(i2) artif
     3          594793.000000               x(i3.i1)       rowsum(i3) artif
     4          993265.000000               x(i4.i5)       rowsum(i4) artif
     5         1383328.000000               x(i5.i3)       rowsum(i5) artif
     6         1391737.000000               x(i5.i4)       colsum(i4) artif
     7         1483501.000000               x(i3.i5)       colsum(i1) artif
     8         1633553.000000               x(i1.i3)       colsum(i3) artif
     9         1693035.000000               x(i3.i2)       colsum(i2) artif
Root relaxation solution time = 0.03 sec. (0.02 ticks)

        Nodes                                         Cuts/
   Node  Left     Objective  IInf  Best Integer    Best Bound    ItCnt     Gap

*     0+    0                      3093962.0000        0.0000           100.00%
Found incumbent of value 3093962.000000 after 0.09 sec. (0.16 ticks)
*     0     0      integral     0  1693035.0000  1693035.0000        9    0.00%
Elapsed time = 0.09 sec. (0.16 ticks, tree = 0.00 MB, solutions = 2)
Found incumbent of value 1693035.000000 after 0.11 sec. (0.16 ticks)

Root node processing (before b&c):
  Real time             =    0.11 sec. (0.16 ticks)
Sequential b&c:
  Real time             =    0.00 sec. (0.00 ticks)
                          ------------
Total (root+branch&cut) =    0.11 sec. (0.16 ticks)
MIP status(101): integer optimal solution
Cplex Time: 0.11sec (det. 0.16 ticks)
Fixing integer variables, and solving final LP...
Tried aggregator 1 time.
LP Presolve eliminated 12 rows and 26 columns.
All rows and columns eliminated.
Presolve time = 0.00 sec. (0.01 ticks)
Fixed MIP status(1): optimal
Cplex Time: 0.00sec (det. 0.02 ticks)

Proven optimal solution.

MIP Solution:      1693035.000000    (9 iterations, 0 nodes)
Final Solve:       1693035.000000    (0 iterations)

Best possible:     1693035.000000
Absolute gap:            0.000000
Relative gap:            0.000000

--- Restarting execution
--- subtour_elim_auto.gms(47) 2 Mb
--- Reading solution for model tsp
--- Executing after solve: elapsed 0:00:00.234
--- subtour_elim_auto.gms(82) 3 Mb
*** Status: Normal completion
--- Job subtour_elim_auto.gms Stop 02/21/17 22:36:14 elapsed 0:00:00.236
